units 			lj
atom_style 		sphere
atom_modify     	map array
boundary 		p p fm
newton 			off
comm_modify 		vel yes 

fix             	prop all property/atom mol ghost yes
neigh_modify    exclude molecule/intra all

region 			reg block 0 20 0 20 0 110 units box
create_box 		1 reg

molecule 		mymol molecule1.dat

pair_style 		gran/hertz/history 2000000 NULL 150.0 NULL 0 0
pair_coeff 		* * 

timestep		0.0003

fix 			mynve all rigid/nve/small molecule mol mymol
fix 			mygrav all gravity 1.0 vector 0 0 -1
fix 			zlower all wall/gran hertz/history 2000000.0 NULL 150.0 NULL 0 0 zplane 0.0 NULL

variable        t loop 5
variable        seed index 65723 17885 34722 59175 80239 

region 			slab block 0 20 0 20 30 110 units box
fix 			ins all pour 900 0 ${seed} vol 0.8 500 region slab  mol mymol rigid mynve

compute 		radius all property/atom radius
variable		myr atom c_radius
compute			voro all voronoi/atom radius v_myr neighbors yes
compute         coordination all coord/atom cutoff 2
compute         kinetic all ke/atom
compute         order all orientorder/atom 

#
dump 			2 all custom 10000000 dumpmolecule1$t.dat mol x y z radius c_voro[1] c_coordination c_kinetic c_voro[2] c_order[1] c_order[2] c_order[3]
dump_modify     2 format float %20.15g 


run 			10000000

clear    
next t
next seed
jump inmolecule1.molecules

